certificates/rado_a11_c137_N37.cnf
c Rad2 upper bound instance: x1 + 11*x2 - x3 = 137, interval [1,37]
p cnf 37 244
1 7 13 0
-1 -7 -13 0
1 14 18 0
-1 -14 -18 0
1 15 29 0
-1 -15 -29 0
2 8 13 0
-2 -8 -13 0
2 14 19 0
-2 -14 -19 0
2 15 30 0
-2 -15 -30 0
3 9 13 0
-3 -9 -13 0
3 14 20 0
-3 -14 -20 0
3 15 31 0
-3 -15 -31 0
4 10 13 0
-4 -10 -13 0
4 14 21 0
-4 -14 -21 0
4 15 32 0
-4 -15 -32 0
5 11 13 0
-5 -11 -13 0
5 14 22 0
-5 -14 -22 0
5 15 33 0
-5 -15 -33 0
1 6 12 0
-1 -6 -12 0
6 12 13 0
-6 -12 -13 0
6 14 23 0
-6 -14 -23 0
6 15 34 0
-6 -15 -34 0
2 7 12 0
-2 -7 -12 0
7 13 0
-7 -13 0
7 14 24 0
-7 -14 -24 0
7 15 35 0
-7 -15 -35 0
3 8 12 0
-3 -8 -12 0
8 13 14 0
-8 -13 -14 0
8 14 25 0
-8 -14 -25 0
8 15 36 0
-8 -15 -36 0
4 9 12 0
-4 -9 -12 0
9 13 15 0
-9 -13 -15 0
9 14 26 0
-9 -14 -26 0
9 15 37 0
-9 -15 -37 0
5 10 12 0
-5 -10 -12 0
10 13 16 0
-10 -13 -16 0
10 14 27 0
-10 -14 -27 0
6 11 12 0
-6 -11 -12 0
11 13 17 0
-11 -13 -17 0
11 14 28 0
-11 -14 -28 0
7 12 0
-7 -12 0
12 13 18 0
-12 -13 -18 0
12 14 29 0
-12 -14 -29 0
8 12 13 0
-8 -12 -13 0
13 19 0
-13 -19 0
13 14 30 0
-13 -14 -30 0
9 12 14 0
-9 -12 -14 0
13 14 20 0
-13 -14 -20 0
14 31 0
-14 -31 0
10 12 15 0
-10 -12 -15 0
13 15 21 0
-13 -15 -21 0
14 15 32 0
-14 -15 -32 0
11 12 16 0
-11 -12 -16 0
13 16 22 0
-13 -16 -22 0
14 16 33 0
-14 -16 -33 0
1 11 17 0
-1 -11 -17 0
12 17 0
-12 -17 0
13 17 23 0
-13 -17 -23 0
14 17 34 0
-14 -17 -34 0
2 11 18 0
-2 -11 -18 0
13 18 24 0
-13 -18 -24 0
14 18 35 0
-14 -18 -35 0
3 11 19 0
-3 -11 -19 0
12 14 19 0
-12 -14 -19 0
13 19 25 0
-13 -19 -25 0
14 19 36 0
-14 -19 -36 0
4 11 20 0
-4 -11 -20 0
12 15 20 0
-12 -15 -20 0
13 20 26 0
-13 -20 -26 0
14 20 37 0
-14 -20 -37 0
5 11 21 0
-5 -11 -21 0
12 16 21 0
-12 -16 -21 0
13 21 27 0
-13 -21 -27 0
6 11 22 0
-6 -11 -22 0
12 17 22 0
-12 -17 -22 0
13 22 28 0
-13 -22 -28 0
7 11 23 0
-7 -11 -23 0
12 18 23 0
-12 -18 -23 0
13 23 29 0
-13 -23 -29 0
8 11 24 0
-8 -11 -24 0
12 19 24 0
-12 -19 -24 0
13 24 30 0
-13 -24 -30 0
9 11 25 0
-9 -11 -25 0
12 20 25 0
-12 -20 -25 0
13 25 31 0
-13 -25 -31 0
10 11 26 0
-10 -11 -26 0
12 21 26 0
-12 -21 -26 0
13 26 32 0
-13 -26 -32 0
11 27 0
-11 -27 0
12 22 27 0
-12 -22 -27 0
13 27 33 0
-13 -27 -33 0
1 10 28 0
-1 -10 -28 0
11 12 28 0
-11 -12 -28 0
12 23 28 0
-12 -23 -28 0
13 28 34 0
-13 -28 -34 0
2 10 29 0
-2 -10 -29 0
11 13 29 0
-11 -13 -29 0
12 24 29 0
-12 -24 -29 0
13 29 35 0
-13 -29 -35 0
3 10 30 0
-3 -10 -30 0
11 14 30 0
-11 -14 -30 0
12 25 30 0
-12 -25 -30 0
13 30 36 0
-13 -30 -36 0
4 10 31 0
-4 -10 -31 0
11 15 31 0
-11 -15 -31 0
12 26 31 0
-12 -26 -31 0
13 31 37 0
-13 -31 -37 0
5 10 32 0
-5 -10 -32 0
11 16 32 0
-11 -16 -32 0
12 27 32 0
-12 -27 -32 0
6 10 33 0
-6 -10 -33 0
11 17 33 0
-11 -17 -33 0
12 28 33 0
-12 -28 -33 0
7 10 34 0
-7 -10 -34 0
11 18 34 0
-11 -18 -34 0
12 29 34 0
-12 -29 -34 0
8 10 35 0
-8 -10 -35 0
11 19 35 0
-11 -19 -35 0
12 30 35 0
-12 -30 -35 0
9 10 36 0
-9 -10 -36 0
11 20 36 0
-11 -20 -36 0
12 31 36 0
-12 -31 -36 0
10 37 0
-10 -37 0
11 21 37 0
-11 -21 -37 0
12 32 37 0
-12 -32 -37 0
