certificates/rado_a11_c137_N37.drat
12 -35 10 0
-12 -36 -37 0
-36 -37 0
d -12 -36 -37 0
-8 -12 0
d -8 -13 -12 0
-37 0
10 0
15 8 0
d 15 36 8 0
-12 0
7 0
17 0
32 0
-13 0
-34 0
-5 0
18 0
19 0
8 0
11 0
31 0
28 0
6 0
29 0
-35 0
-1 0
-2 0
-3 0
-22 0
-23 0
-24 0
-27 0
-16 0
-33 0
-26 0
-14 0
-4 0
-15 0
30 0
9 0
0
